



(declare-const TMP_BV_8 (_ BitVec 8))
(declare-const TMP_BV_16 (_ BitVec 16))
(declare-const TMP_BV_32 (_ BitVec 32))
(declare-const TMP_BV_64 (_ BitVec 64))
(declare-const TMP_BV_128 (_ BitVec 128))
(declare-const TMP_BV_256 (_ BitVec 256))
(declare-const TMP_BOOL Bool)
(declare-const rbx (_ BitVec 64))
(declare-const rax (_ BitVec 64))
(declare-const rcx (_ BitVec 64))
(declare-const rdx (_ BitVec 64))
(declare-const rsp (_ BitVec 64))
(declare-const rip (_ BitVec 64))
(declare-const ymm0 (_ BitVec 256))
(declare-const ymm1 (_ BitVec 256))
(declare-const ymm2 (_ BitVec 256))
(declare-const ymm3 (_ BitVec 256))
(declare-const ymm4 (_ BitVec 256))
(declare-const ymm5 (_ BitVec 256))
(declare-const ymm6 (_ BitVec 256))
(declare-const ymm7 (_ BitVec 256))
(declare-const ymm8 (_ BitVec 256))
(declare-const ymm9 (_ BitVec 256))
(declare-const ymm10 (_ BitVec 256))
(declare-const ymm11 (_ BitVec 256))
(declare-const ymm12 (_ BitVec 256))
(declare-const ymm13 (_ BitVec 256))
(declare-const ymm14 (_ BitVec 256))
(declare-const ymm15 (_ BitVec 256))
(declare-const zf Bool)
(declare-const sf Bool)
(declare-const cf Bool)
(declare-const pf Bool)
(declare-const af Bool)
(declare-const of Bool)

; Uninterpreted binary function declaration
(declare-fun comisd ((_ BitVec 64) (_ BitVec 64)) (_ BitVec 2))
(declare-fun comiss ((_ BitVec 32) (_ BitVec 32)) (_ BitVec 2))
(declare-fun    cvt_single_to_fp16_rm   ((_ BitVec 32) (_ BitVec 8)) (_ BitVec 16) )
(declare-fun    cvt_single_to_int32_rm  ((_ BitVec 32) (_ BitVec 8)) (_ BitVec 32) )
(declare-fun    cvt_double_to_int64_rm  ((_ BitVec 64) (_ BitVec 8)) (_ BitVec 64) )

(declare-fun add_double ((_ BitVec 64) (_ BitVec 64)) (_ BitVec 64))
(declare-fun add_single ((_ BitVec 32) (_ BitVec 32)) (_ BitVec 32))
(declare-fun sub_double ((_ BitVec 64) (_ BitVec 64)) (_ BitVec 64))
(declare-fun sub_single ((_ BitVec 32) (_ BitVec 32)) (_ BitVec 32))
(declare-fun div_double ((_ BitVec 64) (_ BitVec 64)) (_ BitVec 64))
(declare-fun div_single ((_ BitVec 32) (_ BitVec 32)) (_ BitVec 32))
(declare-fun mul_double ((_ BitVec 64) (_ BitVec 64)) (_ BitVec 64))
(declare-fun mul_single ((_ BitVec 32) (_ BitVec 32)) (_ BitVec 32))
(declare-fun maxcmp_double ((_ BitVec 64) (_ BitVec 64)) (_ BitVec 1))
(declare-fun maxcmp_single ((_ BitVec 32) (_ BitVec 32)) (_ BitVec 1))
(declare-fun mincmp_double ((_ BitVec 64) (_ BitVec 64)) (_ BitVec 1))
(declare-fun mincmp_single ((_ BitVec 32) (_ BitVec 32)) (_ BitVec 1))

(declare-fun idiv_quotient_int8   ((_ BitVec 16) (_ BitVec 8)) (_ BitVec 8))
(declare-fun idiv_remainder_int8  ((_ BitVec 16) (_ BitVec 8)) (_ BitVec 8))
(declare-fun idiv_quotient_int16  ((_ BitVec 32) (_ BitVec 16)) (_ BitVec 16))
(declare-fun idiv_remainder_int16 ((_ BitVec 32) (_ BitVec 16)) (_ BitVec 16))
(declare-fun idiv_quotient_int32  ((_ BitVec 64) (_ BitVec 32)) (_ BitVec 32))
(declare-fun idiv_remainder_int32 ((_ BitVec 64) (_ BitVec 32)) (_ BitVec 32))
(declare-fun idiv_quotient_int64  ((_ BitVec 128) (_ BitVec 64)) (_ BitVec 64))
(declare-fun idiv_remainder_int64 ((_ BitVec 128) (_ BitVec 64)) (_ BitVec 64))
(declare-fun div_quotient_int8   ((_ BitVec 16) (_ BitVec 8)) (_ BitVec 8))
(declare-fun div_remainder_int8  ((_ BitVec 16) (_ BitVec 8)) (_ BitVec 8))
(declare-fun div_quotient_int16  ((_ BitVec 32) (_ BitVec 16)) (_ BitVec 16))
(declare-fun div_remainder_int16 ((_ BitVec 32) (_ BitVec 16)) (_ BitVec 16))
(declare-fun div_quotient_int32  ((_ BitVec 64) (_ BitVec 32)) (_ BitVec 32))
(declare-fun div_remainder_int32 ((_ BitVec 64) (_ BitVec 32)) (_ BitVec 32))
(declare-fun div_quotient_int64  ((_ BitVec 128) (_ BitVec 64)) (_ BitVec 64))
(declare-fun div_remainder_int64 ((_ BitVec 128) (_ BitVec 64)) (_ BitVec 64))

; Uninterpreted unary function declaration
(declare-fun    cvt_half_to_single      ((_ BitVec 16)) (_ BitVec 32) )
(declare-fun    cvt_double_to_int64_truncate     ((_ BitVec 64)) (_ BitVec 64) )
(declare-fun    cvt_single_to_int64_truncate     ((_ BitVec 32)) (_ BitVec 64) )

(declare-fun approx_reciprocal_double       ((_ BitVec 64)) (_ BitVec 64) )
(declare-fun approx_reciprocal_single       ((_ BitVec 32)) (_ BitVec 32) )
(declare-fun sqrt_double                    ((_ BitVec 64)) (_ BitVec 64) )
(declare-fun sqrt_single                    ((_ BitVec 32)) (_ BitVec 32) )
(declare-fun approx_reciprocal_sqrt_double  ((_ BitVec 64)) (_ BitVec 64) )
(declare-fun approx_reciprocal_sqrt_single  ((_ BitVec 32)) (_ BitVec 32) )

(declare-fun cvt_single_to_double           ((_ BitVec 32)) (_ BitVec 64) )
(declare-fun cvt_double_to_single           ((_ BitVec 64)) (_ BitVec 32) )

(declare-fun cvt_single_to_int32            ((_ BitVec 32)) (_ BitVec 32) )
(declare-fun cvt_single_to_int32_truncate   ((_ BitVec 32)) (_ BitVec 32) )
(declare-fun cvt_single_to_int64            ((_ BitVec 32)) (_ BitVec 64) )
(declare-fun cvt_double_to_int32            ((_ BitVec 64)) (_ BitVec 32) )
(declare-fun cvt_double_to_int32_truncate   ((_ BitVec 64)) (_ BitVec 32) )
(declare-fun cvt_double_to_int64            ((_ BitVec 64)) (_ BitVec 64) )

(declare-fun cvt_int32_to_single            ((_ BitVec 32)) (_ BitVec 32) )
(declare-fun cvt_int32_to_double            ((_ BitVec 32)) (_ BitVec 64) )
(declare-fun cvt_int64_to_single            ((_ BitVec 64)) (_ BitVec 32) )
(declare-fun cvt_int64_to_double            ((_ BitVec 64)) (_ BitVec 64) )

; Uninterpreted ternary function declaration
(declare-fun cmp_double_pred ((_ BitVec 64) (_ BitVec 64) (_ BitVec 8)) (_ BitVec 1))
(declare-fun cmp_single_pred ((_ BitVec 32) (_ BitVec 32) (_ BitVec 8)) (_ BitVec 1))

(declare-fun vfmadd132_double ((_ BitVec 64) (_ BitVec 64) (_ BitVec 64)) (_ BitVec 64))
(declare-fun vfmadd132_single ((_ BitVec 32) (_ BitVec 32) (_ BitVec 32)) (_ BitVec 32))
(declare-fun vfmadd231_double ((_ BitVec 64) (_ BitVec 64) (_ BitVec 64)) (_ BitVec 64))
(declare-fun vfmadd231_single ((_ BitVec 32) (_ BitVec 32) (_ BitVec 32)) (_ BitVec 32))
(declare-fun vfmadd213_double ((_ BitVec 64) (_ BitVec 64) (_ BitVec 64)) (_ BitVec 64))
(declare-fun vfmadd213_single ((_ BitVec 32) (_ BitVec 32) (_ BitVec 32)) (_ BitVec 32))
(declare-fun vfmsub132_double ((_ BitVec 64) (_ BitVec 64) (_ BitVec 64)) (_ BitVec 64))
(declare-fun vfmsub132_single ((_ BitVec 32) (_ BitVec 32) (_ BitVec 32)) (_ BitVec 32))
(declare-fun vfmsub231_double ((_ BitVec 64) (_ BitVec 64) (_ BitVec 64)) (_ BitVec 64))
(declare-fun vfmsub231_single ((_ BitVec 32) (_ BitVec 32) (_ BitVec 32)) (_ BitVec 32))
(declare-fun vfmsub213_double ((_ BitVec 64) (_ BitVec 64) (_ BitVec 64)) (_ BitVec 64))
(declare-fun vfmsub213_single ((_ BitVec 32) (_ BitVec 32) (_ BitVec 32)) (_ BitVec 32))
(declare-fun vfnmadd132_double ((_ BitVec 64) (_ BitVec 64) (_ BitVec 64)) (_ BitVec 64))
(declare-fun vfnmadd132_single ((_ BitVec 32) (_ BitVec 32) (_ BitVec 32)) (_ BitVec 32))
(declare-fun vfnmsub132_double ((_ BitVec 64) (_ BitVec 64) (_ BitVec 64)) (_ BitVec 64))
(declare-fun vfnmsub132_single ((_ BitVec 32) (_ BitVec 32) (_ BitVec 32)) (_ BitVec 32))


( push )
( echo "vpavgb_ymm_ymm_ymm::ymm1")
(assert (not (=
(let ((a!1 (bvlshr (bvadd (concat #b0 ((_ extract 255 248) ymm2))
(concat #b0 ((_ extract 255 248) ymm3))
#b000000001)
#b000000001))
(a!2 (bvlshr (bvadd (concat #b0 ((_ extract 247 240) ymm2))
(concat #b0 ((_ extract 247 240) ymm3))
#b000000001)
#b000000001))
(a!3 (bvlshr (bvadd (concat #b0 ((_ extract 239 232) ymm2))
(concat #b0 ((_ extract 239 232) ymm3))
#b000000001)
#b000000001))
(a!4 (bvlshr (bvadd (concat #b0 ((_ extract 231 224) ymm2))
(concat #b0 ((_ extract 231 224) ymm3))
#b000000001)
#b000000001))
(a!5 (bvlshr (bvadd (concat #b0 ((_ extract 223 216) ymm2))
(concat #b0 ((_ extract 223 216) ymm3))
#b000000001)
#b000000001))
(a!6 (bvlshr (bvadd (concat #b0 ((_ extract 215 208) ymm2))
(concat #b0 ((_ extract 215 208) ymm3))
#b000000001)
#b000000001))
(a!7 (bvlshr (bvadd (concat #b0 ((_ extract 207 200) ymm2))
(concat #b0 ((_ extract 207 200) ymm3))
#b000000001)
#b000000001))
(a!8 (bvlshr (bvadd (concat #b0 ((_ extract 199 192) ymm2))
(concat #b0 ((_ extract 199 192) ymm3))
#b000000001)
#b000000001))
(a!9 (bvlshr (bvadd (concat #b0 ((_ extract 191 184) ymm2))
(concat #b0 ((_ extract 191 184) ymm3))
#b000000001)
#b000000001))
(a!10 (bvlshr (bvadd (concat #b0 ((_ extract 183 176) ymm2))
(concat #b0 ((_ extract 183 176) ymm3))
#b000000001)
#b000000001))
(a!11 (bvlshr (bvadd (concat #b0 ((_ extract 175 168) ymm2))
(concat #b0 ((_ extract 175 168) ymm3))
#b000000001)
#b000000001))
(a!12 (bvlshr (bvadd (concat #b0 ((_ extract 167 160) ymm2))
(concat #b0 ((_ extract 167 160) ymm3))
#b000000001)
#b000000001))
(a!13 (bvlshr (bvadd (concat #b0 ((_ extract 159 152) ymm2))
(concat #b0 ((_ extract 159 152) ymm3))
#b000000001)
#b000000001))
(a!14 (bvlshr (bvadd (concat #b0 ((_ extract 151 144) ymm2))
(concat #b0 ((_ extract 151 144) ymm3))
#b000000001)
#b000000001))
(a!15 (bvlshr (bvadd (concat #b0 ((_ extract 143 136) ymm2))
(concat #b0 ((_ extract 143 136) ymm3))
#b000000001)
#b000000001))
(a!16 (bvlshr (bvadd (concat #b0 ((_ extract 135 128) ymm2))
(concat #b0 ((_ extract 135 128) ymm3))
#b000000001)
#b000000001))
(a!17 (bvlshr (bvadd (concat #b0 ((_ extract 127 120) ymm2))
(concat #b0 ((_ extract 127 120) ymm3))
#b000000001)
#b000000001))
(a!18 (bvlshr (bvadd (concat #b0 ((_ extract 119 112) ymm2))
(concat #b0 ((_ extract 119 112) ymm3))
#b000000001)
#b000000001))
(a!19 (bvlshr (bvadd (concat #b0 ((_ extract 111 104) ymm2))
(concat #b0 ((_ extract 111 104) ymm3))
#b000000001)
#b000000001))
(a!20 (bvlshr (bvadd (concat #b0 ((_ extract 103 96) ymm2))
(concat #b0 ((_ extract 103 96) ymm3))
#b000000001)
#b000000001))
(a!21 (bvlshr (bvadd (concat #b0 ((_ extract 95 88) ymm2))
(concat #b0 ((_ extract 95 88) ymm3))
#b000000001)
#b000000001))
(a!22 (bvlshr (bvadd (concat #b0 ((_ extract 87 80) ymm2))
(concat #b0 ((_ extract 87 80) ymm3))
#b000000001)
#b000000001))
(a!23 (bvlshr (bvadd (concat #b0 ((_ extract 79 72) ymm2))
(concat #b0 ((_ extract 79 72) ymm3))
#b000000001)
#b000000001))
(a!24 (bvlshr (bvadd (concat #b0 ((_ extract 71 64) ymm2))
(concat #b0 ((_ extract 71 64) ymm3))
#b000000001)
#b000000001))
(a!25 (bvlshr (bvadd (concat #b0 ((_ extract 63 56) ymm2))
(concat #b0 ((_ extract 63 56) ymm3))
#b000000001)
#b000000001))
(a!26 (bvlshr (bvadd (concat #b0 ((_ extract 55 48) ymm2))
(concat #b0 ((_ extract 55 48) ymm3))
#b000000001)
#b000000001))
(a!27 (bvlshr (bvadd (concat #b0 ((_ extract 47 40) ymm2))
(concat #b0 ((_ extract 47 40) ymm3))
#b000000001)
#b000000001))
(a!28 (bvlshr (bvadd (concat #b0 ((_ extract 39 32) ymm2))
(concat #b0 ((_ extract 39 32) ymm3))
#b000000001)
#b000000001))
(a!29 (bvlshr (bvadd (concat #b0 ((_ extract 31 24) ymm2))
(concat #b0 ((_ extract 31 24) ymm3))
#b000000001)
#b000000001))
(a!30 (bvlshr (bvadd (concat #b0 ((_ extract 23 16) ymm2))
(concat #b0 ((_ extract 23 16) ymm3))
#b000000001)
#b000000001))
(a!31 (bvlshr (bvadd (concat #b0 ((_ extract 15 8) ymm2))
(concat #b0 ((_ extract 15 8) ymm3))
#b000000001)
#b000000001))
(a!32 (bvlshr (bvadd (concat #b0 ((_ extract 7 0) ymm2))
(concat #b0 ((_ extract 7 0) ymm3))
#b000000001)
#b000000001)))
(let ((a!33 (concat ((_ extract 7 0) a!29)
(concat ((_ extract 7 0) a!30)
(concat ((_ extract 7 0) a!31)
((_ extract 7 0) a!32))))))
(let ((a!34 (concat ((_ extract 7 0) a!26)
(concat ((_ extract 7 0) a!27)
(concat ((_ extract 7 0) a!28) a!33)))))
(let ((a!35 (concat ((_ extract 7 0) a!23)
(concat ((_ extract 7 0) a!24)
(concat ((_ extract 7 0) a!25) a!34)))))
(let ((a!36 (concat ((_ extract 7 0) a!20)
(concat ((_ extract 7 0) a!21)
(concat ((_ extract 7 0) a!22) a!35)))))
(let ((a!37 (concat ((_ extract 7 0) a!17)
(concat ((_ extract 7 0) a!18)
(concat ((_ extract 7 0) a!19) a!36)))))
(let ((a!38 (concat ((_ extract 7 0) a!14)
(concat ((_ extract 7 0) a!15)
(concat ((_ extract 7 0) a!16) a!37)))))
(let ((a!39 (concat ((_ extract 7 0) a!11)
(concat ((_ extract 7 0) a!12)
(concat ((_ extract 7 0) a!13) a!38)))))
(let ((a!40 (concat ((_ extract 7 0) a!8)
(concat ((_ extract 7 0) a!9)
(concat ((_ extract 7 0) a!10) a!39)))))
(let ((a!41 (concat ((_ extract 7 0) a!5)
(concat ((_ extract 7 0) a!6)
(concat ((_ extract 7 0) a!7) a!40)))))
(let ((a!42 (concat ((_ extract 7 0) a!2)
(concat ((_ extract 7 0) a!3)
(concat ((_ extract 7 0) a!4) a!41)))))
(concat ((_ extract 7 0) a!1) a!42))))))))))))

(let ((a!1 (bvlshr (bvadd (concat #b0 ((_ extract 255 248) ymm2))
(concat #b0 ((_ extract 255 248) ymm3))
#b000000001)
#b000000001))
(a!2 (bvlshr (bvadd (concat #b0 ((_ extract 247 240) ymm2))
(concat #b0 ((_ extract 247 240) ymm3))
#b000000001)
#b000000001))
(a!3 (bvlshr (bvadd (concat #b0 ((_ extract 239 232) ymm2))
(concat #b0 ((_ extract 239 232) ymm3))
#b000000001)
#b000000001))
(a!4 (bvlshr (bvadd (concat #b0 ((_ extract 231 224) ymm2))
(concat #b0 ((_ extract 231 224) ymm3))
#b000000001)
#b000000001))
(a!5 (bvlshr (bvadd (concat #b0 ((_ extract 223 216) ymm2))
(concat #b0 ((_ extract 223 216) ymm3))
#b000000001)
#b000000001))
(a!6 (bvlshr (bvadd (concat #b0 ((_ extract 215 208) ymm2))
(concat #b0 ((_ extract 215 208) ymm3))
#b000000001)
#b000000001))
(a!7 (bvlshr (bvadd (concat #b0 ((_ extract 207 200) ymm2))
(concat #b0 ((_ extract 207 200) ymm3))
#b000000001)
#b000000001))
(a!8 (bvlshr (bvadd (concat #b0 ((_ extract 199 192) ymm2))
(concat #b0 ((_ extract 199 192) ymm3))
#b000000001)
#b000000001))
(a!9 (bvlshr (bvadd (concat #b0 ((_ extract 191 184) ymm2))
(concat #b0 ((_ extract 191 184) ymm3))
#b000000001)
#b000000001))
(a!10 (bvlshr (bvadd (concat #b0 ((_ extract 183 176) ymm2))
(concat #b0 ((_ extract 183 176) ymm3))
#b000000001)
#b000000001))
(a!11 (bvlshr (bvadd (concat #b0 ((_ extract 175 168) ymm2))
(concat #b0 ((_ extract 175 168) ymm3))
#b000000001)
#b000000001))
(a!12 (bvlshr (bvadd (concat #b0 ((_ extract 167 160) ymm2))
(concat #b0 ((_ extract 167 160) ymm3))
#b000000001)
#b000000001))
(a!13 (bvlshr (bvadd (concat #b0 ((_ extract 159 152) ymm2))
(concat #b0 ((_ extract 159 152) ymm3))
#b000000001)
#b000000001))
(a!14 (bvlshr (bvadd (concat #b0 ((_ extract 151 144) ymm2))
(concat #b0 ((_ extract 151 144) ymm3))
#b000000001)
#b000000001))
(a!15 (bvlshr (bvadd (concat #b0 ((_ extract 143 136) ymm2))
(concat #b0 ((_ extract 143 136) ymm3))
#b000000001)
#b000000001))
(a!16 (bvlshr (bvadd (concat #b0 ((_ extract 135 128) ymm2))
(concat #b0 ((_ extract 135 128) ymm3))
#b000000001)
#b000000001))
(a!17 (bvlshr (bvadd (concat #b0 ((_ extract 127 120) ymm2))
(concat #b0 ((_ extract 127 120) ymm3))
#b000000001)
#b000000001))
(a!18 (bvlshr (bvadd (concat #b0 ((_ extract 119 112) ymm2))
(concat #b0 ((_ extract 119 112) ymm3))
#b000000001)
#b000000001))
(a!19 (bvlshr (bvadd (concat #b0 ((_ extract 111 104) ymm2))
(concat #b0 ((_ extract 111 104) ymm3))
#b000000001)
#b000000001))
(a!20 (bvlshr (bvadd (concat #b0 ((_ extract 103 96) ymm2))
(concat #b0 ((_ extract 103 96) ymm3))
#b000000001)
#b000000001))
(a!21 (bvlshr (bvadd (concat #b0 ((_ extract 95 88) ymm2))
(concat #b0 ((_ extract 95 88) ymm3))
#b000000001)
#b000000001))
(a!22 (bvlshr (bvadd (concat #b0 ((_ extract 87 80) ymm2))
(concat #b0 ((_ extract 87 80) ymm3))
#b000000001)
#b000000001))
(a!23 (bvlshr (bvadd (concat #b0 ((_ extract 79 72) ymm2))
(concat #b0 ((_ extract 79 72) ymm3))
#b000000001)
#b000000001))
(a!24 (bvlshr (bvadd (concat #b0 ((_ extract 71 64) ymm2))
(concat #b0 ((_ extract 71 64) ymm3))
#b000000001)
#b000000001))
(a!25 (bvlshr (bvadd (concat #b0 ((_ extract 63 56) ymm2))
(concat #b0 ((_ extract 63 56) ymm3))
#b000000001)
#b000000001))
(a!26 (bvlshr (bvadd (concat #b0 ((_ extract 55 48) ymm2))
(concat #b0 ((_ extract 55 48) ymm3))
#b000000001)
#b000000001))
(a!27 (bvlshr (bvadd (concat #b0 ((_ extract 47 40) ymm2))
(concat #b0 ((_ extract 47 40) ymm3))
#b000000001)
#b000000001))
(a!28 (bvlshr (bvadd (concat #b0 ((_ extract 39 32) ymm2))
(concat #b0 ((_ extract 39 32) ymm3))
#b000000001)
#b000000001))
(a!29 (bvlshr (bvadd (concat #b0 ((_ extract 31 24) ymm2))
(concat #b0 ((_ extract 31 24) ymm3))
#b000000001)
#b000000001))
(a!30 (bvlshr (bvadd (concat #b0 ((_ extract 23 16) ymm2))
(concat #b0 ((_ extract 23 16) ymm3))
#b000000001)
#b000000001))
(a!31 (bvlshr (bvadd (concat #b0 ((_ extract 15 8) ymm2))
(concat #b0 ((_ extract 15 8) ymm3))
#b000000001)
#b000000001))
(a!32 (bvlshr (bvadd (concat #b0 ((_ extract 7 0) ymm2))
(concat #b0 ((_ extract 7 0) ymm3))
#b000000001)
#b000000001)))
(let ((a!33 (concat ((_ extract 7 0) a!29)
(concat ((_ extract 7 0) a!30)
(concat ((_ extract 7 0) a!31)
((_ extract 7 0) a!32))))))
(let ((a!34 (concat ((_ extract 7 0) a!26)
(concat ((_ extract 7 0) a!27)
(concat ((_ extract 7 0) a!28) a!33)))))
(let ((a!35 (concat ((_ extract 7 0) a!23)
(concat ((_ extract 7 0) a!24)
(concat ((_ extract 7 0) a!25) a!34)))))
(let ((a!36 (concat ((_ extract 7 0) a!20)
(concat ((_ extract 7 0) a!21)
(concat ((_ extract 7 0) a!22) a!35)))))
(let ((a!37 (concat ((_ extract 7 0) a!17)
(concat ((_ extract 7 0) a!18)
(concat ((_ extract 7 0) a!19) a!36)))))
(let ((a!38 (concat ((_ extract 7 0) a!14)
(concat ((_ extract 7 0) a!15)
(concat ((_ extract 7 0) a!16) a!37)))))
(let ((a!39 (concat ((_ extract 7 0) a!11)
(concat ((_ extract 7 0) a!12)
(concat ((_ extract 7 0) a!13) a!38)))))
(let ((a!40 (concat ((_ extract 7 0) a!8)
(concat ((_ extract 7 0) a!9)
(concat ((_ extract 7 0) a!10) a!39)))))
(let ((a!41 (concat ((_ extract 7 0) a!5)
(concat ((_ extract 7 0) a!6)
(concat ((_ extract 7 0) a!7) a!40)))))
(let ((a!42 (concat ((_ extract 7 0) a!2)
(concat ((_ extract 7 0) a!3)
(concat ((_ extract 7 0) a!4) a!41)))))
(concat ((_ extract 7 0) a!1) a!42))))))))))))
)))
(check-sat)
( pop )



